(set-info :smt-lib-version 2.6)
(set-logic QF_NIA)
(set-info :source |
Generated by: Cristina Borralleras, Daniel Larraz, Albert Oliveras, Enric Rodriguez-Carbonell, Albert Rubio
Generated on: 2017-04-27
Generator: VeryMax
Application: Termination proving
Target solver: barcelogic
|)
(set-info :license "https://creativecommons.org/licenses/by/4.0/")
(set-info :category "industrial")
(set-info :status unsat)
(declare-fun Nl2main_x1 () Int)
(declare-fun Nl2main_y1 () Int)
(declare-fun lam0n0 () Int)
(declare-fun lam0n1 () Int)
(declare-fun lam0n2 () Int)
(declare-fun lam0n3 () Int)
(declare-fun lam0n4 () Int)
(declare-fun lam0n5 () Int)
(declare-fun lam0n6 () Int)
(declare-fun lam0n7 () Int)
(declare-fun lam0n8 () Int)
(declare-fun lam0n9 () Int)
(declare-fun Nl2CT1 () Int)
(declare-fun lam1n0 () Int)
(declare-fun lam1n1 () Int)
(declare-fun lam1n2 () Int)
(declare-fun lam1n3 () Int)
(declare-fun lam1n4 () Int)
(declare-fun lam1n5 () Int)
(declare-fun lam1n6 () Int)
(declare-fun lam1n7 () Int)
(declare-fun lam1n8 () Int)
(declare-fun lam1n9 () Int)
(declare-fun lam2n0 () Int)
(declare-fun lam2n1 () Int)
(declare-fun main_x () Int)
(declare-fun undef3 () Int)
(declare-fun main_y () Int)
(declare-fun undef4 () Int)
(declare-fun FV_main_x_1 () Int)
(declare-fun FV_main_y_1 () Int)
(declare-fun lam3n0 () Int)
(declare-fun lam3n1 () Int)
(declare-fun lam3n2 () Int)
(declare-fun lam3n3 () Int)
(declare-fun lam3n4 () Int)
(declare-fun lam3n5 () Int)
(declare-fun lam3n6 () Int)
(declare-fun lam3n7 () Int)
(declare-fun lam3n8 () Int)
(declare-fun lam3n9 () Int)
(declare-fun FV_main_x_2 () Int)
(declare-fun FV_main_y_2 () Int)
(assert ( and ( <= ( - 4 ) Nl2main_x1 ) ( <= Nl2main_x1 4 ) ( <= ( - 4 ) Nl2main_y1 ) ( <= Nl2main_y1 4 ) ))
(assert ( or ( and ( >= lam0n0 0 ) ( >= lam0n1 0 ) ( >= lam0n2 0 ) ( >= lam0n3 0 ) ( >= lam0n4 0 ) ( >= lam0n5 0 ) ( >= lam0n6 0 ) ( >= lam0n7 0 ) ( >= lam0n8 0 ) ( >= lam0n9 0 ) ( > ( + ( * 2 lam0n0 ) ( * 2 lam0n1 ) ( * 2 lam0n2 ) ( * 1 lam0n3 ) ( * 1 lam0n4 ) ( * 1 lam0n5 ) ( * 1 lam0n6 ) ( * 1 lam0n7 ) ( * 3 lam0n8 ) ( * Nl2CT1 lam0n9 ) ( - 1 ) ) 0 ) ( = ( + ( * ( - 4 ) lam0n0 ) ( * ( - 2 ) lam0n1 ) ( * ( - 3 ) lam0n2 ) ( * 1 lam0n3 ) ( * ( - 1 ) lam0n4 ) ( * ( - 1 ) lam0n5 ) ( * ( - 4 ) lam0n6 ) ( * ( - 2 ) lam0n8 ) ( * Nl2main_x1 lam0n9 ) ) 0 ) ( = ( + ( * ( - 3 ) lam0n0 ) ( * ( - 1 ) lam0n1 ) ( * ( - 2 ) lam0n2 ) ( * ( - 2 ) lam0n3 ) ( * 1 lam0n5 ) ( * 5 lam0n6 ) ( * ( - 1 ) lam0n7 ) ( * 1 lam0n8 ) ( * Nl2main_y1 lam0n9 ) ) 0 ) ) ( and ( >= lam1n0 0 ) ( >= lam1n1 0 ) ( >= lam1n2 0 ) ( >= lam1n3 0 ) ( >= lam1n4 0 ) ( >= lam1n5 0 ) ( >= lam1n6 0 ) ( >= lam1n7 0 ) ( >= lam1n8 0 ) ( >= lam1n9 0 ) ( > ( + ( * 2 lam1n0 ) ( * 2 lam1n1 ) ( * 2 lam1n2 ) ( * 1 lam1n3 ) ( * 1 lam1n4 ) ( * 1 lam1n5 ) ( * 1 lam1n6 ) ( * 1 lam1n7 ) ( * 3 lam1n8 ) ( * Nl2CT1 lam1n9 ) ( - 1 ( + ( + Nl2CT1 ( * Nl2main_x1 0 ) ) ( * Nl2main_y1 0 ) ) ) ) 0 ) ( = ( + ( * ( - 4 ) lam1n0 ) ( * ( - 2 ) lam1n1 ) ( * ( - 3 ) lam1n2 ) ( * 1 lam1n3 ) ( * ( - 1 ) lam1n4 ) ( * ( - 1 ) lam1n5 ) ( * ( - 4 ) lam1n6 ) ( * ( - 2 ) lam1n8 ) ( * Nl2main_x1 lam1n9 ) ( - ( + ( + 0 ( * Nl2main_x1 2 ) ) ( * Nl2main_y1 4 ) ) ) ) 0 ) ( = ( + ( * ( - 3 ) lam1n0 ) ( * ( - 1 ) lam1n1 ) ( * ( - 2 ) lam1n2 ) ( * ( - 2 ) lam1n3 ) ( * 1 lam1n5 ) ( * 5 lam1n6 ) ( * ( - 1 ) lam1n7 ) ( * 1 lam1n8 ) ( * Nl2main_y1 lam1n9 ) ( - ( + 0 ( * Nl2main_x1 4 ) ) ) ) 0 ) ) ))
(assert ( and ( <= ( + Nl2CT1 ( * Nl2main_x1 FV_main_x_1 ) ( * Nl2main_y1 FV_main_y_1 ) ) 0 ) ( <= ( + 1 ( * ( - 1 ) FV_main_y_1 ) ) 0 ) ( <= ( + 1 ( * ( - 1 ) FV_main_x_1 ) ) 0 ) ( <= ( + 1 FV_main_x_1 ( * ( - 2 ) FV_main_y_1 ) ) 0 ) ( <= ( + 1 ( * ( - 1 ) FV_main_x_1 ) FV_main_y_1 ) 0 ) ))
(assert ( and ( >= lam3n0 0 ) ( >= lam3n1 0 ) ( >= lam3n2 0 ) ( >= lam3n3 0 ) ( >= lam3n4 0 ) ( >= lam3n5 0 ) ( >= lam3n6 0 ) ( >= lam3n7 0 ) ( >= lam3n8 0 ) ( >= lam3n9 0 ) ( > ( + ( * 2 lam3n1 ) ( * 2 lam3n2 ) ( * 2 lam3n3 ) ( * 1 lam3n4 ) ( * 1 lam3n5 ) ( * 1 lam3n6 ) ( * 1 lam3n7 ) ( * 3 lam3n8 ) ( * Nl2CT1 lam3n9 ) ( - 1 ) ) 0 ) ( = ( + ( * 4 lam3n0 ) ( * ( - 4 ) lam3n1 ) ( * ( - 2 ) lam3n2 ) ( * ( - 3 ) lam3n3 ) ( * 1 lam3n4 ) ( * ( - 1 ) lam3n5 ) ( * ( - 1 ) lam3n6 ) ( * ( - 2 ) lam3n8 ) ( * Nl2main_x1 lam3n9 ) ) 0 ) ( = ( + ( * ( - 5 ) lam3n0 ) ( * ( - 3 ) lam3n1 ) ( * ( - 1 ) lam3n2 ) ( * ( - 2 ) lam3n3 ) ( * ( - 2 ) lam3n4 ) ( * 1 lam3n6 ) ( * ( - 1 ) lam3n7 ) ( * 1 lam3n8 ) ( * Nl2main_y1 lam3n9 ) ) 0 ) ))
(assert ( and ( <= ( + Nl2CT1 ( * Nl2main_x1 FV_main_x_2 ) ( * Nl2main_y1 FV_main_y_2 ) ) 0 ) ( and ( <= ( + 2 ( * ( - 4 ) FV_main_x_2 ) ( * ( - 3 ) FV_main_y_2 ) ) 0 ) ( <= ( + 2 ( * ( - 2 ) FV_main_x_2 ) ( * ( - 1 ) FV_main_y_2 ) ) 0 ) ( <= ( + 2 ( * ( - 3 ) FV_main_x_2 ) ( * ( - 2 ) FV_main_y_2 ) ) 0 ) ( <= ( + 1 FV_main_x_2 ( * ( - 2 ) FV_main_y_2 ) ) 0 ) ( <= ( + 1 ( * ( - 1 ) FV_main_x_2 ) ) 0 ) ( <= ( + 1 ( * ( - 1 ) FV_main_x_2 ) FV_main_y_2 ) 0 ) ( <= ( + 1 ( * ( - 4 ) FV_main_x_2 ) ( * 5 FV_main_y_2 ) ) 0 ) ( <= ( + 1 ( * ( - 1 ) FV_main_y_2 ) ) 0 ) ( <= ( + 3 ( * ( - 2 ) FV_main_x_2 ) FV_main_y_2 ) 0 ) ) ))
(check-sat)
(exit)
